;test regex ^[2-9](?:0[1-9]|1[02-9]|2[013-9]|3[0-24-9]|4[0-35-9]|5[0-46-9]|6[0-57-9]|7[0-689]|8[0-79]|9[0-8])[2-9](?:1[02-9]|[02-9]1|[02-9]{2})[0-9]{4}$
(declare-const X String)
(assert (str.in_re X (re.++ (re.++ (str.to_re "") (re.++ (re.range "2" "9") (re.++ (re.union (re.union (re.union (re.union (re.union (re.union (re.union (re.union (re.union (re.++ (str.to_re "0") (re.range "1" "9")) (re.++ (str.to_re "1") (re.range "02" "9"))) (re.++ (str.to_re "2") (re.range "013" "9"))) (re.++ (str.to_re "3") (re.union (re.range "0" "24") (re.union (str.to_re "-") (str.to_re "9"))))) (re.++ (str.to_re "4") (re.union (re.range "0" "35") (re.union (str.to_re "-") (str.to_re "9"))))) (re.++ (str.to_re "5") (re.union (re.range "0" "46") (re.union (str.to_re "-") (str.to_re "9"))))) (re.++ (str.to_re "6") (re.union (re.range "0" "57") (re.union (str.to_re "-") (str.to_re "9"))))) (re.++ (str.to_re "7") (re.range "0" "689"))) (re.++ (str.to_re "8") (re.range "0" "79"))) (re.++ (str.to_re "9") (re.range "0" "8"))) (re.++ (re.range "2" "9") (re.++ (re.union (re.union (re.++ (str.to_re "1") (re.range "02" "9")) (re.++ (re.range "02" "9") (str.to_re "1"))) ((_ re.loop 2 2) (re.range "02" "9"))) ((_ re.loop 4 4) (re.range "0" "9"))))))) (str.to_re ""))))
; sanitize danger characters:  < > ' " &
(assert (not (str.in_re X (re.++ re.all (re.union (str.to_re "\u{3c}") (str.to_re "\u{3e}") (str.to_re "\u{27}") (str.to_re "\u{22}") (str.to_re "\u{26}")) re.all))))
(assert (< 9 (str.len X)))
(check-sat)
(get-model)